# Script for determining the equilibrium dimensions of my simulation box at 0.0 GPa and 300K in the eyes of my classical CG model. This is MARTINI 2.0 model I for mapping A.

units		real
atom_style	full
boundary        p p p

read_data	pos.dat

group  bead type 1

mass		1 227.6

velocity	all create 0 87287

pair_style      lj/gromacs 9.0 12.0
pair_coeff	1 1 0.835961   4.7
special_bonds   lj 1.0e-50 1.0 1.0

bond_style      harmonic
bond_coeff      1 29.44 6.09

angle_style	cosine/squared
angle_coeff	1 39.2445 89.5
angle_coeff	2 44.769 119.5

neighbor        0.5 bin 
neigh_modify    delay 0 every 1 check yes

thermo_style    custom step temp pe etotal pxx pyy pzz pxy pxz pyz lx ly lz xlo xhi ylo yhi zlo zhi xy xz yz vol press
thermo          10

# Minimization was done before running MD (this is actually not needed)..
min_style cg
min_modify	     dmax 1.0e-2 line quadratic

fix 3 all box/relax  tri 0.0
minimize 0 1e-10 5000 50000
unfix 3

#-----------------------------------------
# Running some steps in the NPT ensemble aiming to get enough statistics for determining the equilibrium dimensions of the box in each direction at 300K and 0.0 GPa.
velocity	all create 300 87287
timestep	20

fix              1 all npt temp 300 300 $(100*dt) tri 0.0 0.0 $(1000*dt)
run              400000
unfix            1

write_restart restart.equil
